Test: chnl11_12.cnf
Options: -no-inverting-opt -activity-look-freq=1
WARNING: for repeatability, setting FPU to use double precision
============================[ Problem Statistics ]=============================
|                                                                             |
|  Number of symmetries:           43                                         |
|  Number of invertingSyms:         0                                         |
|  Number of variables:           264                                         |
|  Number of clauses:            1476                                         |
|  Parse time:                   0.00 s                                       |
|                                                                             |
============================[ Search Statistics ]==============================
| Conflicts |          ORIGINAL         |          LEARNT          | Progress |
|           |    Vars  Clauses Literals |    Limit  Clauses Lit/Cl |          |
===============================================================================
===============================================================================
restarts              : 1
conflicts             : 13             (inf /sec)
symconflicts          : 5              (inf /sec)
decisions             : 63             (0.00 % random) (inf /sec)
propagations          : 914            (inf /sec)
sympropagations       : 119            (inf /sec)
conflict literals     : 281            (0.00 % deleted)
literals     : 281            (0.00 % deleted)

HEURISTIC USAGES
random                : 0           
activity w/ lookahead : 63          
activity no lookahead : 0           
original sp           : 0           
sym count             : 0           

Memory used           : 6.00 MB
CPU time              : 0 s

UNSATISFIABLE
